(set-logic QF_S)
(set-option :strings-exp true)
(set-option :produce-models true)
(declare-fun sigmaStar_0 () String)
(declare-fun x_8 () String)
(declare-fun epsilon () String)
(declare-fun literal_3 () String)
(declare-fun x_9 () String)
(declare-fun literal_10 () String)
(declare-fun x_11 () String)
(assert (= epsilon ""))
(assert (= literal_3 "\x4e\x2f\x41"))
(assert (or (= x_8 epsilon) (= x_8 literal_3)))
(assert (= x_9 (str.++ sigmaStar_0 x_8)))
(assert (= literal_10 "\x3c\x62\x72\x3e\x5c\x6e"))
(assert (= x_11 (str.++ x_9 literal_10)))
(assert (str.in.re x_11 (re.++ (re.* re.allchar) (re.++ (str.to.re "\x5c\x3c\x53\x43\x52\x49\x50\x54") (re.* re.allchar)))))
(check-sat)
(get-model)
